NAME : pr264.29549.tour
COMMENT : Length = 29549
COMMENT : Found by LKH [Keld Helsgaun] Sat May 25 06:41:13 2013
TYPE : TOUR
DIMENSION : 53
TOUR_SECTION
40
39
60
121
129
113
110
67
26
24
71
104
74
13
12
7
82
83
89
132
135
196
202
203
258
257
262
254
184
185
182
176
218
219
264
237
225
164
148
162
161
160
227
234
229
150
125
126
50
57
45
43
42
-1
EOF
